 &control
    calculation = 'scf'
    pseudo_dir = '/home/ty/espresso/pseudo/'
    tprnfor=.true.
    tstress=.true.
 /
 &system
    ibrav = 0
    nat = 2
    ntyp = 1
    occupations = 'smearing'
    smearing = 'gaussian'
    degauss = 0.01
    ecutwfc = 36.0
 /
 &electrons
    diagonalization = 'david'
    conv_thr = 1.0d-8
 /
ATOMIC_SPECIES
 Si  28.086  Si.pbe-n-kjpaw_psl.0.1.UPF
ATOMIC_POSITIONS crystal
 Si   0.0	0.0	0.0
 Si   0.25	0.25	0.25
CELL_PARAMETERS bohr
 0.0	5.1646	5.1646
 5.1646 0.0	5.1646
 5.1646	5.1646	0.0
K_POINTS automatic
 4 4 4  1 1 1
~                                                                                                                                                                                                           
~                               
