 &control
    calculation = 'scf'
    pseudo_dir = '/home/ty/espresso/pseudo/'
    tprnfor=.true.
    tstress=.true.
 /
 &system
    ibrav = 0
    nat = 16
    ntyp = 1
    occupations = 'smearing'
    smearing = 'gaussian'
    degauss = 0.01
    ecutwfc = 36.0
 /
 &electrons
    diagonalization = 'david'
    conv_thr = 1.0d-8
 /
K_POINTS automatic
 4 4 4  1 1 1
!    ibrav = 0, nat = 16, ntyp = 1
CELL_PARAMETERS bohr
    0.0000000000000000   10.3292000000000002   10.3292000000000002
   10.3292000000000002    0.0000000000000000   10.3292000000000002
   10.3292000000000002   10.3292000000000002    0.0000000000000000
ATOMIC_SPECIES
 Si   28.08550   Si.pbe-n-kjpaw_psl.0.1.UPF
ATOMIC_POSITIONS crystal
 Si   0.0013691414266091  0.0000000000000000  0.0000000000000000
 Si   0.5000000000000000  0.0000000000000000  0.0000000000000000
 Si   0.0000000000000000  0.5000000000000000  0.0000000000000000
 Si   0.5000000000000000  0.5000000000000000  0.0000000000000000
 Si   0.0000000000000000  0.0000000000000000  0.5000000000000000
 Si   0.5000000000000000  0.0000000000000000  0.5000000000000000
 Si   0.0000000000000000  0.5000000000000000  0.5000000000000000
 Si   0.5000000000000000  0.5000000000000000  0.5000000000000000
 Si   0.1250000000000000  0.1250000000000000  0.1250000000000000
 Si   0.6250000000000000  0.1250000000000000  0.1250000000000000
 Si   0.1250000000000000  0.6250000000000000  0.1250000000000000
 Si   0.6250000000000000  0.6250000000000000  0.1250000000000000
 Si   0.1250000000000000  0.1250000000000000  0.6250000000000000
 Si   0.6250000000000000  0.1250000000000000  0.6250000000000000
 Si   0.1250000000000000  0.6250000000000000  0.6250000000000000
 Si   0.6250000000000000  0.6250000000000000  0.6250000000000000
