Si
   5.466000000000     
     0    0.5   0.5 
     0.5  0	0.5    
     0.5  0.5	0
   2
Direct
   0 0 0
   0.25 0.25 0.25
